[ChangeItem]	OldItemIndex	OldItemOption	NewItemIndex	NewItemOption	Type
0	1378	0	1378	0	1
1	550	148	0	0	1
2	550	149	0	0	1
3	550	151	0	0	1
4	550	152	0	0	1
5	550	154	0	0	1
6	550	155	0	0	1
7	543	163	0	0	1
8	543	164	0	0	1
9	543	165	0	0	1
10	550	166	0	0	1
11	550	167	0	0	1
12	550	168	0	0	1
13	550	169	0	0	1
14	550	170	0	0	1
15	550	171	0	0	1
16	550	172	0	0	1
17	550	173	0	0	1
18	550	174	0	0	1
19	543	175	0	0	1
20	543	176	0	0	1
21	543	177	0	0	1
22	543	178	0	0	1
23	543	179	0	0	1
24	543	180	0	0	1
25	543	181	0	0	1
26	543	182	0	0	1
27	543	183	0	0	1
28	543	184	0	0	1
29	543	185	0	0	1
30	543	186	0	0	1
31	543	219	0	0	1
32	1367	1324	0	0	1
33	1368	1325	0	0	1
34	1369	1326	0	0	1
35	1370	1327	0	0	1
36	1371	1328	0	0	1
37	1362	0	0	0	1
38	1363	0	0	0	1
39	1364	0	0	0	1
40	1365	0	0	0	1
41	1366	0	0	0	1
42	560	3957	0	0	1
43	560	3956	0	0	1
44	560	3955	0	0	1
45	560	3954	0	0	1
46	560	3953	0	0	1
47	1372	0	0	0	1
48	1187	0	1187	0	3
49	1312	0	1312	0	3
50	1522	0	1522	0	3
51	1523	0	1523	0	3
52	1524	0	1524	0	3
53	1525	0	1525	0	3
54	1526	0	1526	0	3
55	1527	0	1527	0	3
56	1528	0	1528	0	3
57	1529	0	1529	0	3
58	1530	0	1530	0	3
59	1531	0	1531	0	3
60	1532	0	1532	0	3
61	1211	1317	1441	1321	4
62	1212	1320	1441	1321	4
63	692	1	692	61	4
64	692	2	692	61	4
65	692	3	692	61	4
66	692	4	692	61	4
67	692	5	692	62	4
68	692	6	692	62	4
69	692	7	692	62	4
70	692	8	692	62	4
71	692	9	692	63	4
72	692	10	692	63	4
73	692	11	692	63	4
74	692	12	692	63	4
75	692	13	692	64	4
76	692	14	692	64	4
77	692	15	692	64	4
78	692	16	692	64	4
79	692	17	692	65	4
80	692	18	692	65	4
81	692	19	692	65	4
82	692	20	692	65	4
83	692	21	692	66	4
84	692	22	692	66	4
85	692	23	692	66	4
86	692	24	692	66	4
87	692	25	692	67	4
88	692	26	692	67	4
89	692	27	692	67	4
90	692	28	692	67	4
91	692	29	692	68	4
92	692	30	692	68	4
93	692	31	692	68	4
94	692	32	692	68	4
95	692	33	692	69	4
96	692	34	692	69	4
97	692	35	692	69	4
98	692	36	692	69	4
99	692	37	692	70	4
100	692	38	692	70	4
101	692	39	692	70	4
102	692	40	692	70	4
103	692	41	692	71	4
104	692	42	692	71	4
105	692	43	692	71	4
106	692	44	692	71	4
107	692	45	692	72	4
108	692	46	692	72	4
109	692	47	692	72	4
110	692	48	692	72	4
111	692	49	692	73	4
112	692	50	692	73	4
113	692	51	692	73	4
114	692	52	692	73	4
115	692	53	692	74	4
116	692	54	692	74	4
117	692	55	692	74	4
118	692	56	692	74	4
119	692	57	692	75	4
120	692	58	692	75	4
121	692	59	692	75	4
122	692	60	692	75	4
123	601	1241	945	1288	4
124	682	0	682	1	4
125	1619	0	5	50	4
126	5715	0	5	50	4
127	783	1	783	0	4
128	2	536870912	2	0	4
129	657	200	2416	0	4
130	657	400	2417	0	4
131	658	100	2420	0	4
132	658	200	2421	0	4
133	659	100	2424	0	4
134	659	200	2425	0	4
135	660	10	2428	0	4
136	660	15	2429	0	4
137	661	10	2432	0	4
138	661	15	2433	0	4
139	662	3	2436	0	4
140	662	6	2437	0	4
141	664	10	2440	0	4
142	664	20	2441	0	4
143	665	20	2444	0	4
144	665	40	2445	0	4
145	848	600	2417	0	4
146	848	1200	2418	0	4
147	849	300	2421	0	4
148	849	600	2422	0	4
149	850	200	2425	0	4
150	850	400	2426	0	4
151	851	20	2429	0	4
152	851	35	2430	0	4
153	852	20	2433	0	4
154	852	35	2434	0	4
155	647	10	2460	0	4
156	647	15	2461	0	4
157	853	4	2437	0	4
158	853	8	2438	0	4
159	855	15	2441	0	4
160	855	30	2442	0	4
161	856	30	2445	0	4
162	856	60	2446	0	4
163	669	20	2461	0	4
164	669	30	2462	0	4
165	860	1200	2418	0	4
166	860	2400	2419	0	4
167	861	600	2422	0	4
168	861	1200	2423	0	4
169	862	300	2426	0	4
170	862	600	2427	0	4
171	863	30	2430	0	4
172	863	50	2431	0	4
173	864	30	2434	0	4
174	864	50	2435	0	4
175	672	10	2450	0	4
176	672	15	2451	0	4
177	673	10	2454	0	4
178	673	15	2455	0	4
179	674	70	2458	0	4
180	674	90	2459	0	4
181	865	6	2438	0	4
182	865	12	2439	0	4
183	867	20	2442	0	4
184	867	40	2443	0	4
185	868	50	2446	0	4
186	868	100	2447	0	4
187	2652	0	10	0	4
188	2653	0	1	0	4
189	2656	0	1425	0	4
190	2657	0	1426	0	4
191	1268	1	1268	0	4
192	2187	1	2187	0	4
193	2567	1424	6663	1424	4
					
[ChangeWeapon]	ItemIndex	ItemDuration	TriggerKind	ChangeKind	ChangeDuration
0	1633	12	140897	140897	31
1	1634	12	140898	140898	31
2	1635	12	140899	140899	31
3	1636	12	140900	140900	31
4	1637	12	140901	140901	31
5	1638	12	140902	140902	31
6	1639	12	140903	140903	31
7	1640	12	140904	140904	31
8	1641	12	140905	140905	31
9	1642	12	140906	140906	31
10	1643	12	140907	140907	31
11	1644	12	140908	140908	31
12	1645	12	140909	140909	31
13	1646	12	140910	140910	31
14	1647	12	140911	140911	31
15	1648	12	140912	140912	31
16	1649	12	140913	140913	31
17	1650	12	140914	140914	31
18	1651	12	140915	140915	31
19	1652	12	140916	140916	31
20	1653	12	140917	140917	31
21	1654	12	140918	140918	31
22	1655	12	140919	140919	31
23	1656	12	140920	140920	31
18	1613	12	140877	140877	31
19	1614	12	140878	140878	31
20	1615	12	140879	140879	31
21	1616	12	140880	140880	31
22	1617	12	140881	140881	31
23	1618	12	140882	140882	31
28	25	12	139289	139289	31
29	40	12	139304	139304	31
30	55	12	139319	139319	31
31	70	12	139334	139334	31
32	85	12	139349	139349	31
33	100	12	139364	139364	31
0	115	12	139379	139379	31
1	116	12	139380	139380	31
2	130	12	139394	139394	31
3	131	12	139395	139395	31
4	145	12	139409	139409	31
5	146	12	139410	139410	31
6	160	12	139424	139424	31
7	161	12	139425	139425	31
8	175	12	139439	139439	31
9	176	12	139440	139440	31
10	190	12	139454	139454	31
11	191	12	139455	139455	31
12	205	12	139469	139469	31
13	206	12	139470	139470	31
14	220	12	139484	139484	31
15	221	12	139485	139485	31
16	235	12	139499	139499	31
17	236	12	139500	139500	31
18	250	12	139514	139514	31
19	251	12	139515	139515	31
20	265	12	139529	139529	31
21	266	12	139530	139530	31
22	280	12	139544	139544	31
23	281	12	139545	139545	31